100 8
248 140
545 170
357 92
501 460
574 501
508 334
344 323
47 775
87 618
675 181
374 355
407 359
846 305
550 628
356 470
495 615
693 261
532 261
474 40
732 324
604 619
828 614
861 593
193 164
22 613
952 687
638 298
512 719
855 680
640 255
205 702
632 192
78 354
855 508
732 498
497 494
362 161
843 736
33 352
516 585
209 409
443 269
197 666
533 510
393 324
228 463
849 804
144 520
837 645
305 672
333 651
507 51
886 633
545 19
270 259
474 257
518 291
937 591
378 322
336 654
622 305
858 543
285 230
479 609
120 757
190 742
145 544
544 260
221 808
644 196
583 664
906 538
506 20
653 274
479 519
171 489
161 765
334 794
883 546
77 701
620 600
194 652
780 618
398 428
349 105
116 339
600 228
783 769
820 720
770 765
173 189
673 614
963 530
885 505
777 728
512 32
792 562
691 782
65 450
232 847
